c 2 __LINUXTHREADS_OLD__
c 1 __UCLIBC_HAS_THREADS_NATIVE__
c 6 __UCLIBC_HAS_STDIO_BUFSIZ_NONE__
c 3 __UCLIBC_HAS_GLIBC_CUSTOM_STREAMS__
c 5 __LINUXTHREADS_NEW__
c 4 __UCLIBC_HAS_THREADS__
p cnf 6 2
1 2 -4 -3 5 1
1 2 6 -4 5 1
